
  32    4
  10   10   10   10

   0   0   0   0   0  15 2 3 5 7 8 11 23 24 25 26 27 28 29 30 31 
   8   1   0   1   1   8 22 21 20 17 16 15 13 9 
   7   4   1   3   0   3 17 14 4 
   9   0   3   3   3   4 18 16 13 6 
   9   5   2   1   0   3 15 14 13 
   4   5   4   0   7   1 9 
   7   6   5   0   2   2 19 14 
   5   6   3   6   0   2 15 14 
   9   0   4   5   5   1 10 
   1   2   3   5   0   1 12 
  10   4   6   5   0   1 13 
   7   4   1   0   1   1 32
   2   0   4   2   7   1 32
   9   0   7   5  10   1 32
   4   5   0   4   3   1 32
   7   6   0   5   4   1 32
   9   0   5   2   2   1 32
   4   1   4   0   4   1 32
   7   0   2   2   5   1 32
   7   5   6   7   0   1 32
   4   0   6   7   6   1 32
   8   3   3   0   3   1 32
   2   3   3   4   0   1 32
   3   5   4   4   0   1 32
   9   0   3   3   3   1 32
  10   2   8   0   4   1 32
   2   2   4   0   5   1 32
   8   3   0   2   4   1 32
   8   6   5   3   0   1 32
   2   4   0   9   3   1 32
   5   6   0   4   2   1 32
   0   0   0   0   0   0 
